SECTION Graph
Nodes 342
Edges 552
E 1 2 5
E 2 3 5
E 3 4 5
E 4 5 5
E 5 6 5
E 6 7 5
E 7 8 5
E 8 9 5
E 9 10 5
E 10 11 5
E 11 12 5
E 12 13 5
E 13 14 5
E 14 15 5
E 15 16 5
E 16 17 5
E 17 18 5
E 18 19 5
E 19 20 5
E 20 21 5
E 21 22 5
E 22 23 5
E 23 24 5
E 1 25 13
E 2 26 13
E 3 27 13
E 4 28 13
E 5 29 13
E 6 30 13
E 7 31 13
E 8 32 13
E 9 33 13
E 11 35 13
E 12 36 13
E 14 37 13
E 16 39 13
E 18 41 13
E 20 43 13
E 21 44 13
E 23 46 13
E 24 47 13
E 25 26 5
E 26 27 5
E 27 28 5
E 28 29 5
E 29 30 5
E 30 31 5
E 31 32 5
E 32 33 5
E 33 34 5
E 34 35 5
E 35 36 5
E 37 38 5
E 38 39 5
E 39 40 5
E 40 41 5
E 41 42 5
E 42 43 5
E 43 44 5
E 44 45 5
E 45 46 5
E 46 47 5
E 25 48 13
E 27 49 13
E 28 50 13
E 29 51 13
E 30 52 13
E 32 53 13
E 34 54 13
E 36 55 13
E 37 56 13
E 39 57 13
E 40 58 13
E 41 59 13
E 43 60 13
E 44 61 13
E 45 62 13
E 47 63 13
E 49 50 5
E 50 51 5
E 51 52 5
E 57 58 5
E 58 59 5
E 60 61 5
E 61 62 5
E 48 64 13
E 49 65 13
E 51 66 13
E 52 67 13
E 53 68 13
E 54 69 13
E 55 70 13
E 56 72 13
E 57 73 13
E 59 75 13
E 60 76 13
E 61 77 13
E 62 78 13
E 63 79 13
E 66 67 5
E 70 71 5
E 71 72 5
E 73 74 5
E 74 75 5
E 76 77 5
E 77 78 5
E 64 80 13
E 65 82 13
E 66 83 13
E 67 84 13
E 68 86 13
E 69 88 13
E 70 90 13
E 72 91 13
E 73 93 13
E 74 94 13
E 75 95 13
E 76 97 13
E 78 99 13
E 79 101 13
E 80 81 5
E 81 82 5
E 83 84 5
E 84 85 5
E 85 86 5
E 86 87 5
E 87 88 5
E 88 89 5
E 89 90 5
E 91 92 5
E 92 93 5
E 93 94 5
E 94 95 5
E 95 96 5
E 96 97 5
E 97 98 5
E 98 99 5
E 99 100 5
E 100 101 5
E 81 103 13
E 82 104 13
E 83 106 13
E 85 108 13
E 86 109 13
E 87 110 13
E 89 112 13
E 90 113 13
E 91 114 13
E 93 116 13
E 94 117 13
E 95 118 13
E 96 119 13
E 97 120 13
E 98 121 13
E 99 122 13
E 101 124 13
E 102 103 5
E 103 104 5
E 104 105 5
E 105 106 5
E 106 107 5
E 107 108 5
E 108 109 5
E 109 110 5
E 110 111 5
E 111 112 5
E 112 113 5
E 114 115 5
E 115 116 5
E 116 117 5
E 117 118 5
E 118 119 5
E 119 120 5
E 120 121 5
E 121 122 5
E 122 123 5
E 123 124 5
E 102 125 13
E 103 126 13
E 104 127 13
E 105 128 13
E 107 129 13
E 109 131 13
E 111 133 13
E 112 134 13
E 113 135 13
E 114 137 13
E 115 138 13
E 116 139 13
E 117 140 13
E 118 141 13
E 120 143 13
E 121 144 13
E 122 145 13
E 123 146 13
E 124 147 13
E 125 126 5
E 126 127 5
E 127 128 5
E 129 130 5
E 130 131 5
E 131 132 5
E 132 133 5
E 133 134 5
E 134 135 5
E 135 136 5
E 136 137 5
E 137 138 5
E 138 139 5
E 139 140 5
E 140 141 5
E 141 142 5
E 142 143 5
E 143 144 5
E 144 145 5
E 145 146 5
E 146 147 5
E 125 148 13
E 126 149 13
E 127 150 13
E 128 151 13
E 129 152 13
E 130 153 13
E 131 154 13
E 132 155 13
E 133 156 13
E 135 157 13
E 137 158 13
E 139 159 13
E 140 160 13
E 141 161 13
E 142 162 13
E 143 163 13
E 144 164 13
E 145 165 13
E 146 166 13
E 147 167 13
E 148 149 5
E 149 150 5
E 150 151 5
E 152 153 5
E 153 154 5
E 154 155 5
E 155 156 5
E 159 160 5
E 160 161 5
E 161 162 5
E 162 163 5
E 163 164 5
E 164 165 5
E 165 166 5
E 166 167 5
E 148 168 13
E 149 169 13
E 150 170 13
E 151 171 13
E 152 173 13
E 153 174 13
E 154 175 13
E 155 176 13
E 156 177 13
E 157 178 13
E 158 179 13
E 159 180 13
E 160 181 13
E 161 182 13
E 163 184 13
E 166 187 13
E 168 169 5
E 169 170 5
E 170 171 5
E 171 172 5
E 172 173 5
E 173 174 5
E 174 175 5
E 175 176 5
E 176 177 5
E 180 181 5
E 181 182 5
E 182 183 5
E 183 184 5
E 184 185 5
E 185 186 5
E 186 187 5
E 168 188 13
E 169 189 13
E 170 190 13
E 171 191 13
E 172 192 13
E 173 193 13
E 174 194 13
E 175 195 13
E 176 196 13
E 177 197 13
E 178 199 13
E 179 201 13
E 180 203 13
E 181 204 13
E 182 205 13
E 183 206 13
E 184 207 13
E 185 208 13
E 186 209 13
E 187 210 13
E 188 189 5
E 189 190 5
E 190 191 5
E 191 192 5
E 192 193 5
E 193 194 5
E 194 195 5
E 195 196 5
E 196 197 5
E 197 198 5
E 198 199 5
E 199 200 5
E 200 201 5
E 201 202 5
E 202 203 5
E 203 204 5
E 204 205 5
E 205 206 5
E 206 207 5
E 207 208 5
E 208 209 5
E 209 210 5
E 188 211 13
E 189 212 13
E 190 213 13
E 191 214 13
E 192 215 13
E 193 216 13
E 194 217 13
E 195 218 13
E 196 219 13
E 197 220 13
E 198 221 13
E 199 222 13
E 201 223 13
E 203 225 13
E 204 226 13
E 207 229 13
E 208 230 13
E 209 231 13
E 210 232 13
E 211 212 5
E 212 213 5
E 213 214 5
E 214 215 5
E 215 216 5
E 216 217 5
E 217 218 5
E 218 219 5
E 219 220 5
E 220 221 5
E 221 222 5
E 223 224 5
E 224 225 5
E 225 226 5
E 226 227 5
E 227 228 5
E 228 229 5
E 229 230 5
E 230 231 5
E 231 232 5
E 232 233 5
E 211 234 13
E 212 235 13
E 213 236 13
E 214 237 13
E 215 238 13
E 216 239 13
E 217 240 13
E 218 241 13
E 219 242 13
E 220 243 13
E 221 244 13
E 222 245 13
E 223 246 13
E 225 248 13
E 226 249 13
E 228 251 13
E 229 252 13
E 230 253 13
E 231 254 13
E 233 255 13
E 234 235 5
E 235 236 5
E 236 237 5
E 237 238 5
E 238 239 5
E 239 240 5
E 240 241 5
E 241 242 5
E 242 243 5
E 243 244 5
E 244 245 5
E 246 247 5
E 247 248 5
E 248 249 5
E 249 250 5
E 250 251 5
E 251 252 5
E 252 253 5
E 253 254 5
E 234 256 13
E 235 257 13
E 236 258 13
E 237 259 13
E 238 260 13
E 239 261 13
E 240 262 13
E 241 263 13
E 242 264 13
E 243 265 13
E 245 266 13
E 246 268 13
E 248 269 13
E 249 270 13
E 250 271 13
E 252 273 13
E 253 274 13
E 254 275 13
E 255 277 13
E 256 257 5
E 257 258 5
E 258 259 5
E 259 260 5
E 260 261 5
E 261 262 5
E 262 263 5
E 263 264 5
E 264 265 5
E 266 267 5
E 267 268 5
E 269 270 5
E 270 271 5
E 271 272 5
E 272 273 5
E 273 274 5
E 274 275 5
E 275 276 5
E 276 277 5
E 256 278 13
E 257 279 13
E 258 280 13
E 259 281 13
E 260 282 13
E 261 283 13
E 263 284 13
E 264 285 13
E 265 286 13
E 266 287 13
E 267 288 13
E 268 289 13
E 269 291 13
E 270 292 13
E 271 293 13
E 273 294 13
E 274 295 13
E 275 296 13
E 276 297 13
E 277 298 13
E 278 279 5
E 279 280 5
E 280 281 5
E 281 282 5
E 282 283 5
E 284 285 5
E 285 286 5
E 287 288 5
E 288 289 5
E 289 290 5
E 290 291 5
E 291 292 5
E 292 293 5
E 294 295 5
E 295 296 5
E 296 297 5
E 297 298 5
E 279 300 13
E 280 301 13
E 281 302 13
E 283 303 13
E 284 304 13
E 286 306 13
E 287 308 13
E 288 309 13
E 289 310 13
E 290 311 13
E 291 312 13
E 292 313 13
E 293 314 13
E 294 315 13
E 295 316 13
E 296 317 13
E 297 318 13
E 298 319 13
E 299 300 5
E 300 301 5
E 301 302 5
E 304 305 5
E 305 306 5
E 306 307 5
E 307 308 5
E 308 309 5
E 309 310 5
E 310 311 5
E 311 312 5
E 312 313 5
E 313 314 5
E 315 316 5
E 316 317 5
E 317 318 5
E 318 319 5
E 299 320 13
E 301 322 13
E 302 323 13
E 303 324 13
E 304 326 13
E 305 327 13
E 306 328 13
E 308 330 13
E 311 333 13
E 312 334 13
E 313 335 13
E 314 336 13
E 315 338 13
E 316 339 13
E 317 340 13
E 319 342 13
E 320 321 5
E 321 322 5
E 322 323 5
E 324 325 5
E 325 326 5
E 326 327 5
E 327 328 5
E 328 329 5
E 329 330 5
E 330 331 5
E 331 332 5
E 332 333 5
E 333 334 5
E 334 335 5
E 335 336 5
E 336 337 5
E 337 338 5
E 338 339 5
E 339 340 5
E 340 341 5
E 341 342 5
END

SECTION Terminals
Terminals 17
T 36
T 48
T 52
T 53
T 54
T 56
T 59
T 62
T 65
T 90
T 128
T 156
T 157
T 158
T 222
T 276
T 293
END

EOF
